peakDumbCharging = 7400; 
Machine = anon_enum(16); 
machineSpeed = [3700,3700,3700,3700,3700,3700,3700,3700,3700,3700,3700,3700,3700,3700,3700,3700]; 
machineLoad = [3700,3700,3700,3700,3700,3700,3700,3700,3700,3700,3700,3700,3700,3700,3700,3700]; 
Car = anon_enum(12); 
demandCar = [1040,2560,5320,7520,360,6000,11960,1000,9320,1160,30520,15960]; 
arrivalCar = [77,74,70,67,66,56,50,50,42,39,31,22]; 
departureCar = [78,76,74,71,67,59,54,51,48,41,50,68]; 
